Variables/s27.txt
CK
DFF_0
DFF_1
DFF_2
G0
G1
G10
G11
G12
G13
G14
G15
G16
G17
G2
G3
G5
G6
G7
G8
G9
GND
VDD